p cnf 357 1035
c inputs: 1 2 3 4 5 6 7 8 9 10 11 12
c variables for gates: 13 ... 345
c outputs: 346 347 348 349 350 351 352 353 354 355 356 357
c random input: -1 2 -3 -4 -5 -6 -7 8 -9 -10 11 -12
13 -1 -7 0
-13 1 0
-13 7 0
14 -2 -7 0
-14 2 0
-14 7 0
15 -3 -7 0
-15 3 0
-15 7 0
16 -4 -7 0
-16 4 0
-16 7 0
17 -5 -7 0
-17 5 0
-17 7 0
18 -6 -7 0
-18 6 0
-18 7 0
19 -1 -8 0
-19 1 0
-19 8 0
20 -2 -8 0
-20 2 0
-20 8 0
21 -3 -8 0
-21 3 0
-21 8 0
22 -4 -8 0
-22 4 0
-22 8 0
23 -5 -8 0
-23 5 0
-23 8 0
24 -6 -8 0
-24 6 0
-24 8 0
25 -1 -9 0
-25 1 0
-25 9 0
26 -2 -9 0
-26 2 0
-26 9 0
27 -3 -9 0
-27 3 0
-27 9 0
28 -4 -9 0
-28 4 0
-28 9 0
29 -5 -9 0
-29 5 0
-29 9 0
30 -6 -9 0
-30 6 0
-30 9 0
31 -1 -10 0
-31 1 0
-31 10 0
32 -2 -10 0
-32 2 0
-32 10 0
33 -3 -10 0
-33 3 0
-33 10 0
34 -4 -10 0
-34 4 0
-34 10 0
35 -5 -10 0
-35 5 0
-35 10 0
36 -6 -10 0
-36 6 0
-36 10 0
37 -1 -11 0
-37 1 0
-37 11 0
38 -2 -11 0
-38 2 0
-38 11 0
39 -3 -11 0
-39 3 0
-39 11 0
40 -4 -11 0
-40 4 0
-40 11 0
41 -5 -11 0
-41 5 0
-41 11 0
42 -6 -11 0
-42 6 0
-42 11 0
43 -1 -12 0
-43 1 0
-43 12 0
44 -2 -12 0
-44 2 0
-44 12 0
45 -3 -12 0
-45 3 0
-45 12 0
46 -4 -12 0
-46 4 0
-46 12 0
47 -5 -12 0
-47 5 0
-47 12 0
48 -6 -12 0
-48 6 0
-48 12 0
49 -14 -19 0
-49 14 0
-49 19 0
50 -14 19 0
-50 14 0
-50 -19 0
51 -19 14 0
-51 19 0
-51 -14 0
52 51 50 0
-52 -51 0
-52 -50 0
53 -20 -15 0
-53 20 0
-53 15 0
54 -15 -25 0
-54 15 0
-54 25 0
55 -20 -25 0
-55 20 0
-55 25 0
56 54 55 0
-56 -54 0
-56 -55 0
57 53 -56 0
-57 -53 0
-57 56 0
58 -20 25 0
-58 20 0
-58 -25 0
59 -25 20 0
-59 25 0
-59 -20 0
60 59 58 0
-60 -59 0
-60 -58 0
61 -15 -60 0
-61 15 0
-61 60 0
62 15 60 0
-62 -15 0
-62 -60 0
63 61 62 0
-63 -61 0
-63 -62 0
64 -16 -21 0
-64 16 0
-64 21 0
65 -16 -26 0
-65 16 0
-65 26 0
66 -26 -21 0
-66 26 0
-66 21 0
67 65 66 0
-67 -65 0
-67 -66 0
68 64 -67 0
-68 -64 0
-68 67 0
69 -21 26 0
-69 21 0
-69 -26 0
70 -26 21 0
-70 26 0
-70 -21 0
71 69 70 0
-71 -69 0
-71 -70 0
72 -16 -71 0
-72 16 0
-72 71 0
73 16 71 0
-73 -16 0
-73 -71 0
74 72 73 0
-74 -72 0
-74 -73 0
75 -22 -17 0
-75 22 0
-75 17 0
76 -17 -27 0
-76 17 0
-76 27 0
77 -22 -27 0
-77 22 0
-77 27 0
78 77 76 0
-78 -77 0
-78 -76 0
79 75 -78 0
-79 -75 0
-79 78 0
80 -22 27 0
-80 22 0
-80 -27 0
81 -27 22 0
-81 27 0
-81 -22 0
82 81 80 0
-82 -81 0
-82 -80 0
83 -17 -82 0
-83 17 0
-83 82 0
84 17 82 0
-84 -17 0
-84 -82 0
85 83 84 0
-85 -83 0
-85 -84 0
86 -18 -23 0
-86 18 0
-86 23 0
87 -18 -28 0
-87 18 0
-87 28 0
88 -28 -23 0
-88 28 0
-88 23 0
89 88 87 0
-89 -88 0
-89 -87 0
90 86 -89 0
-90 -86 0
-90 89 0
91 -23 28 0
-91 23 0
-91 -28 0
92 -28 23 0
-92 28 0
-92 -23 0
93 91 92 0
-93 -91 0
-93 -92 0
94 -18 -93 0
-94 18 0
-94 93 0
95 18 93 0
-95 -18 0
-95 -93 0
96 94 95 0
-96 -94 0
-96 -95 0
97 -24 -29 0
-97 24 0
-97 29 0
98 -24 29 0
-98 24 0
-98 -29 0
99 -29 24 0
-99 29 0
-99 -24 0
100 98 99 0
-100 -98 0
-100 -99 0
101 -32 -37 0
-101 32 0
-101 37 0
102 -32 37 0
-102 32 0
-102 -37 0
103 -37 32 0
-103 37 0
-103 -32 0
104 103 102 0
-104 -103 0
-104 -102 0
105 -38 -33 0
-105 38 0
-105 33 0
106 -33 -43 0
-106 33 0
-106 43 0
107 -38 -43 0
-107 38 0
-107 43 0
108 106 107 0
-108 -106 0
-108 -107 0
109 105 -108 0
-109 -105 0
-109 108 0
110 -38 43 0
-110 38 0
-110 -43 0
111 -43 38 0
-111 43 0
-111 -38 0
112 111 110 0
-112 -111 0
-112 -110 0
113 -33 -112 0
-113 33 0
-113 112 0
114 33 112 0
-114 -33 0
-114 -112 0
115 113 114 0
-115 -113 0
-115 -114 0
116 -34 -39 0
-116 34 0
-116 39 0
117 -34 -44 0
-117 34 0
-117 44 0
118 -44 -39 0
-118 44 0
-118 39 0
119 117 118 0
-119 -117 0
-119 -118 0
120 116 -119 0
-120 -116 0
-120 119 0
121 -39 44 0
-121 39 0
-121 -44 0
122 -44 39 0
-122 44 0
-122 -39 0
123 121 122 0
-123 -121 0
-123 -122 0
124 -34 -123 0
-124 34 0
-124 123 0
125 34 123 0
-125 -34 0
-125 -123 0
126 124 125 0
-126 -124 0
-126 -125 0
127 -40 -35 0
-127 40 0
-127 35 0
128 -35 -45 0
-128 35 0
-128 45 0
129 -40 -45 0
-129 40 0
-129 45 0
130 129 128 0
-130 -129 0
-130 -128 0
131 127 -130 0
-131 -127 0
-131 130 0
132 -40 45 0
-132 40 0
-132 -45 0
133 -45 40 0
-133 45 0
-133 -40 0
134 133 132 0
-134 -133 0
-134 -132 0
135 -35 -134 0
-135 35 0
-135 134 0
136 35 134 0
-136 -35 0
-136 -134 0
137 135 136 0
-137 -135 0
-137 -136 0
138 -36 -41 0
-138 36 0
-138 41 0
139 -36 -46 0
-139 36 0
-139 46 0
140 -46 -41 0
-140 46 0
-140 41 0
141 139 140 0
-141 -139 0
-141 -140 0
142 138 -141 0
-142 -138 0
-142 141 0
143 -41 46 0
-143 41 0
-143 -46 0
144 -46 41 0
-144 46 0
-144 -41 0
145 143 144 0
-145 -143 0
-145 -144 0
146 -36 -145 0
-146 36 0
-146 145 0
147 36 145 0
-147 -36 0
-147 -145 0
148 146 147 0
-148 -146 0
-148 -147 0
149 -42 -47 0
-149 42 0
-149 47 0
150 -42 47 0
-150 42 0
-150 -47 0
151 -47 42 0
-151 47 0
-151 -42 0
152 150 151 0
-152 -150 0
-152 -151 0
153 -49 63 0
-153 49 0
-153 -63 0
154 49 63 0
-154 -49 0
-154 -63 0
155 -49 -63 0
-155 49 0
-155 63 0
156 155 154 0
-156 -155 0
-156 -154 0
157 57 74 0
-157 -57 0
-157 -74 0
158 -31 74 0
-158 31 0
-158 -74 0
159 -31 57 0
-159 31 0
-159 -57 0
160 159 158 0
-160 -159 0
-160 -158 0
161 -160 157 0
-161 160 0
-161 -157 0
162 31 57 0
-162 -31 0
-162 -57 0
163 -31 -57 0
-163 31 0
-163 57 0
164 163 162 0
-164 -163 0
-164 -162 0
165 74 -164 0
-165 -74 0
-165 164 0
166 -74 164 0
-166 74 0
-166 -164 0
167 166 165 0
-167 -166 0
-167 -165 0
168 68 85 0
-168 -68 0
-168 -85 0
169 104 85 0
-169 -104 0
-169 -85 0
170 104 68 0
-170 -104 0
-170 -68 0
171 170 169 0
-171 -170 0
-171 -169 0
172 168 -171 0
-172 -168 0
-172 171 0
173 -104 68 0
-173 104 0
-173 -68 0
174 104 -68 0
-174 -104 0
-174 68 0
175 173 174 0
-175 -173 0
-175 -174 0
176 85 -175 0
-176 -85 0
-176 175 0
177 -85 175 0
-177 85 0
-177 -175 0
178 177 176 0
-178 -177 0
-178 -176 0
179 79 96 0
-179 -79 0
-179 -96 0
180 96 115 0
-180 -96 0
-180 -115 0
181 79 115 0
-181 -79 0
-181 -115 0
182 181 180 0
-182 -181 0
-182 -180 0
183 179 -182 0
-183 -179 0
-183 182 0
184 79 -115 0
-184 -79 0
-184 115 0
185 -79 115 0
-185 79 0
-185 -115 0
186 184 185 0
-186 -184 0
-186 -185 0
187 96 -186 0
-187 -96 0
-187 186 0
188 -96 186 0
-188 96 0
-188 -186 0
189 187 188 0
-189 -187 0
-189 -188 0
190 100 90 0
-190 -100 0
-190 -90 0
191 100 126 0
-191 -100 0
-191 -126 0
192 90 126 0
-192 -90 0
-192 -126 0
193 191 192 0
-193 -191 0
-193 -192 0
194 190 -193 0
-194 -190 0
-194 193 0
195 90 -126 0
-195 -90 0
-195 126 0
196 -90 126 0
-196 90 0
-196 -126 0
197 195 196 0
-197 -195 0
-197 -196 0
198 100 -197 0
-198 -100 0
-198 197 0
199 -100 197 0
-199 100 0
-199 -197 0
200 198 199 0
-200 -198 0
-200 -199 0
201 -30 -97 0
-201 30 0
-201 97 0
202 -30 137 0
-202 30 0
-202 -137 0
203 -97 137 0
-203 97 0
-203 -137 0
204 202 203 0
-204 -202 0
-204 -203 0
205 201 -204 0
-205 -201 0
-205 204 0
206 -97 -137 0
-206 97 0
-206 137 0
207 97 137 0
-207 -97 0
-207 -137 0
208 206 207 0
-208 -206 0
-208 -207 0
209 -30 -208 0
-209 30 0
-209 208 0
210 30 208 0
-210 -30 0
-210 -208 0
211 210 209 0
-211 -210 0
-211 -209 0
212 -153 167 0
-212 153 0
-212 -167 0
213 153 167 0
-213 -153 0
-213 -167 0
214 -153 -167 0
-214 153 0
-214 167 0
215 214 213 0
-215 -214 0
-215 -213 0
216 161 178 0
-216 -161 0
-216 -178 0
217 -161 178 0
-217 161 0
-217 -178 0
218 161 -178 0
-218 -161 0
-218 178 0
219 218 217 0
-219 -218 0
-219 -217 0
220 172 189 0
-220 -172 0
-220 -189 0
221 -101 189 0
-221 101 0
-221 -189 0
222 -101 172 0
-222 101 0
-222 -172 0
223 222 221 0
-223 -222 0
-223 -221 0
224 220 -223 0
-224 -220 0
-224 223 0
225 101 172 0
-225 -101 0
-225 -172 0
226 -101 -172 0
-226 101 0
-226 172 0
227 225 226 0
-227 -225 0
-227 -226 0
228 189 -227 0
-228 -189 0
-228 227 0
229 -189 227 0
-229 189 0
-229 -227 0
230 229 228 0
-230 -229 0
-230 -228 0
231 200 183 0
-231 -200 0
-231 -183 0
232 109 200 0
-232 -109 0
-232 -200 0
233 109 183 0
-233 -109 0
-233 -183 0
234 233 232 0
-234 -233 0
-234 -232 0
235 231 -234 0
-235 -231 0
-235 234 0
236 -109 183 0
-236 109 0
-236 -183 0
237 109 -183 0
-237 -109 0
-237 183 0
238 237 236 0
-238 -237 0
-238 -236 0
239 -238 200 0
-239 238 0
-239 -200 0
240 238 -200 0
-240 -238 0
-240 200 0
241 240 239 0
-241 -240 0
-241 -239 0
242 211 194 0
-242 -211 0
-242 -194 0
243 120 211 0
-243 -120 0
-243 -211 0
244 120 194 0
-244 -120 0
-244 -194 0
245 243 244 0
-245 -243 0
-245 -244 0
246 242 -245 0
-246 -242 0
-246 245 0
247 -120 194 0
-247 120 0
-247 -194 0
248 120 -194 0
-248 -120 0
-248 194 0
249 247 248 0
-249 -247 0
-249 -248 0
250 211 -249 0
-250 -211 0
-250 249 0
251 -211 249 0
-251 211 0
-251 -249 0
252 251 250 0
-252 -251 0
-252 -250 0
253 148 205 0
-253 -148 0
-253 -205 0
254 131 148 0
-254 -131 0
-254 -148 0
255 131 205 0
-255 -131 0
-255 -205 0
256 255 254 0
-256 -255 0
-256 -254 0
257 -256 253 0
-257 256 0
-257 -253 0
258 -131 205 0
-258 131 0
-258 -205 0
259 131 -205 0
-259 -131 0
-259 205 0
260 259 258 0
-260 -259 0
-260 -258 0
261 148 -260 0
-261 -148 0
-261 260 0
262 -148 260 0
-262 148 0
-262 -260 0
263 262 261 0
-263 -262 0
-263 -261 0
264 152 142 0
-264 -152 0
-264 -142 0
265 152 -142 0
-265 -152 0
-265 142 0
266 -152 142 0
-266 152 0
-266 -142 0
267 266 265 0
-267 -266 0
-267 -265 0
268 -48 -149 0
-268 48 0
-268 149 0
269 -48 149 0
-269 48 0
-269 -149 0
270 48 -149 0
-270 -48 0
-270 149 0
271 270 269 0
-271 -270 0
-271 -269 0
272 219 212 0
-272 -219 0
-272 -212 0
273 -219 -212 0
-273 219 0
-273 212 0
274 272 273 0
-274 -272 0
-274 -273 0
275 219 -212 0
-275 -219 0
-275 212 0
276 216 230 0
-276 -216 0
-276 -230 0
277 -216 -230 0
-277 216 0
-277 230 0
278 276 277 0
-278 -276 0
-278 -277 0
279 -275 -278 0
-279 275 0
-279 278 0
280 275 278 0
-280 -275 0
-280 -278 0
281 279 280 0
-281 -279 0
-281 -280 0
282 -275 230 0
-282 275 0
-282 -230 0
283 -216 -275 0
-283 216 0
-283 275 0
284 -216 230 0
-284 216 0
-284 -230 0
285 284 283 0
-285 -284 0
-285 -283 0
286 -285 282 0
-286 285 0
-286 -282 0
287 -224 241 0
-287 224 0
-287 -241 0
288 224 -241 0
-288 -224 0
-288 241 0
289 287 288 0
-289 -287 0
-289 -288 0
290 -289 286 0
-290 289 0
-290 -286 0
291 289 -286 0
-291 -289 0
-291 286 0
292 291 290 0
-292 -291 0
-292 -290 0
293 241 286 0
-293 -241 0
-293 -286 0
294 224 286 0
-294 -224 0
-294 -286 0
295 224 241 0
-295 -224 0
-295 -241 0
296 295 294 0
-296 -295 0
-296 -294 0
297 -296 293 0
-297 296 0
-297 -293 0
298 252 -235 0
-298 -252 0
-298 235 0
299 -252 235 0
-299 252 0
-299 -235 0
300 299 298 0
-300 -299 0
-300 -298 0
301 -300 297 0
-301 300 0
-301 -297 0
302 300 -297 0
-302 -300 0
-302 297 0
303 302 301 0
-303 -302 0
-303 -301 0
304 252 297 0
-304 -252 0
-304 -297 0
305 297 235 0
-305 -297 0
-305 -235 0
306 252 235 0
-306 -252 0
-306 -235 0
307 305 306 0
-307 -305 0
-307 -306 0
308 -307 304 0
-308 307 0
-308 -304 0
309 263 -246 0
-309 -263 0
-309 246 0
310 -263 246 0
-310 263 0
-310 -246 0
311 310 309 0
-311 -310 0
-311 -309 0
312 -311 308 0
-312 311 0
-312 -308 0
313 311 -308 0
-313 -311 0
-313 308 0
314 312 313 0
-314 -312 0
-314 -313 0
315 263 308 0
-315 -263 0
-315 -308 0
316 246 308 0
-316 -246 0
-316 -308 0
317 263 246 0
-317 -263 0
-317 -246 0
318 317 316 0
-318 -317 0
-318 -316 0
319 315 -318 0
-319 -315 0
-319 318 0
320 -257 267 0
-320 257 0
-320 -267 0
321 257 -267 0
-321 -257 0
-321 267 0
322 321 320 0
-322 -321 0
-322 -320 0
323 -322 319 0
-323 322 0
-323 -319 0
324 322 -319 0
-324 -322 0
-324 319 0
325 323 324 0
-325 -323 0
-325 -324 0
326 267 319 0
-326 -267 0
-326 -319 0
327 257 319 0
-327 -257 0
-327 -319 0
328 257 267 0
-328 -257 0
-328 -267 0
329 327 328 0
-329 -327 0
-329 -328 0
330 326 -329 0
-330 -326 0
-330 329 0
331 271 264 0
-331 -271 0
-331 -264 0
332 -271 -264 0
-332 271 0
-332 264 0
333 331 332 0
-333 -331 0
-333 -332 0
334 330 -333 0
-334 -330 0
-334 333 0
335 -330 333 0
-335 330 0
-335 -333 0
336 334 335 0
-336 -334 0
-336 -335 0
337 271 330 0
-337 -271 0
-337 -330 0
338 330 -264 0
-338 -330 0
-338 264 0
339 271 -264 0
-339 -271 0
-339 264 0
340 338 339 0
-340 -338 0
-340 -339 0
341 -340 337 0
-341 340 0
-341 -337 0
342 268 341 0
-342 -268 0
-342 -341 0
343 -268 -341 0
-343 268 0
-343 341 0
344 342 343 0
-344 -342 0
-344 -343 0
345 -268 341 0
-345 268 0
-345 -341 0
-346 13 0
346 -13 0
-347 -52 0
347 52 0
-348 -156 0
348 156 0
-349 -215 0
349 215 0
-350 -274 0
350 274 0
-351 -281 0
351 281 0
-352 -292 0
352 292 0
-353 -303 0
353 303 0
-354 -314 0
354 314 0
-355 -325 0
355 325 0
-356 -336 0
356 336 0
-357 -344 0
357 344 0
-346 0
-347 0
348 0
-349 0
-350 0
351 0
-352 0
-353 0
-354 0
-355 0
-356 0
-357 0
